\ LP format - for model browsing. Use MPS format to capture full model detail.
Minimize
  zeta_sub_0
Subject To
 R0: zeta_sub_0 - 9 y_0_0 - 12 y_0_1 - 3 y_0_2 >= 0
 R1: y_0_0 + y_0_1 + y_0_2 = 1
 R2: - y_0_0 - y_0_1 - y_0_2 = -1
Bounds
 y_0_0 <= 1
 y_0_1 <= 1
 y_0_2 <= 1
End
